GLPSOL--GLPK LP/MIP Solver 5.0
Parameter(s) specified in the command line:
 --lp ../modeles/4_234.lp --log 4_234.log
Reading problem data from '../modeles/4_234.lp'...
953 rows, 1880 columns, 6564 non-zeros
936 integer variables, all of which are binary
2843 lines were read
GLPK Integer Optimizer 5.0
953 rows, 1880 columns, 6564 non-zeros
936 integer variables, all of which are binary
Preprocessing...
920 constraint coefficient(s) were reduced
953 rows, 1876 columns, 6560 non-zeros
936 integer variables, all of which are binary
Scaling...
 A: min|aij| =  2.922e-04  max|aij| =  4.000e+00  ratio =  1.369e+04
GM: min|aij| =  9.245e-02  max|aij| =  1.082e+01  ratio =  1.170e+02
EQ: min|aij| =  8.547e-03  max|aij| =  1.000e+00  ratio =  1.170e+02
2N: min|aij| =  7.812e-03  max|aij| =  1.768e+00  ratio =  2.263e+02
Constructing initial basis...
Size of triangular part is 953
Solving LP relaxation...
GLPK Simplex Optimizer 5.0
953 rows, 1876 columns, 6560 non-zeros
      0: obj =   8.000000000e+00 inf =   1.950e+01 (9)
     67: obj =   4.024586271e-01 inf =   0.000e+00 (0)
*   267: obj =  -1.999782703e+00 inf =   8.979e-16 (0)
OPTIMAL LP SOLUTION FOUND
Integer optimization begins...
Long-step dual simplex will be used
+   267: mip =     not found yet >=              -inf        (1; 0)
+   531: >>>>>  -1.999782703e+00 >=  -1.999782703e+00 < 0.1% (262; 0)
+   531: mip =  -1.999782703e+00 >=     tree is empty   0.0% (0; 523)
INTEGER OPTIMAL SOLUTION FOUND
Time used:   0.3 secs
Memory used: 2.7 Mb (2862962 bytes)
